624,424
575,512
559,646
630,731
838,891
764,662
749,539
716,454
436,-75
630,81
387,257
622,415
766,433
814,474
799,424
885,6
1108,189
1069,124
975,257
769,420
765,322
307,596
225,554
910,721
1062,787
817,673
291,406
